62894
1 27 4123
27 33 4053
33 42 4806
42 45 1301
45 11 436
11 25 545
25 31 299
31 52 1153
52 2 597
2 14 433
14 9 470
9 12 723
12 18 767
18 4 606
4 30 380
30 47 944
47 54 490
54 34 400
34 53 395
53 23 387
23 21 176
21 29 515
29 22 543
22 10 117
10 16 733
16 39 450
39 46 213
46 36 402
36 15 678
15 17 2536
17 48 415
48 49 761
49 26 560
26 55 397
55 28 487
28 6 404
6 3 384
3 43 1096
43 13 790
13 51 644
51 37 589
37 5 467
5 35 322
35 24 295
24 20 739
20 50 763
50 38 1180
38 8 367
8 44 383
44 32 675
32 41 361
41 19 1369
19 7 3021
7 40 1176
40 1 15578
